
Gurobi 12.0.0 (mac64[arm]) logging started Tue Feb 17 09:27:09 2026

Set parameter LogFile to value "/Users/lennardhansmann/Desktop/TNLAP/Instances/sol/H30P180A1(A).log"
Set parameter Threads to value 1
Gurobi Optimizer version 12.0.0 build v12.0.0rc1 (mac64[arm] - Darwin 25.2.0 25C56)

CPU model: Apple M3 Pro
Thread count: 11 physical cores, 11 logical processors, using up to 1 threads

Non-default parameters:
TimeLimit  3600
Threads  1

Optimize a model with 18498 rows, 15423 columns and 103992 nonzeros
Model fingerprint: 0x07c0ad45
Variable types: 5478 continuous, 9945 integer (9945 binary)
Coefficient statistics:
  Matrix range     [4e-03, 2e+04]
  Objective range  [1e+00, 1e+00]
  Bounds range     [1e+00, 2e+04]
  RHS range        [5e-01, 2e+04]
Presolve removed 11860 rows and 9848 columns
Presolve time: 0.66s
Presolved: 6638 rows, 5575 columns, 40372 nonzeros
Variable types: 351 continuous, 5224 integer (4209 binary)
Found heuristic solution: objective 0.3386667
Found heuristic solution: objective 1.4143595
Found heuristic solution: objective 3.0179832

Root relaxation: objective 1.684275e+01, 2793 iterations, 0.06 seconds (0.09 work units)

    Nodes    |    Current Node    |     Objective Bounds      |     Work
 Expl Unexpl |  Obj  Depth IntInf | Incumbent    BestBd   Gap | It/Node Time

     0     0   16.84275    0  639    3.01798   16.84275   458%     -    0s
H    0     0                       3.0504832   16.84275   452%     -    0s
H    0     0                       9.1784386   16.84275  83.5%     -    0s
H    0     0                       9.1809386   16.84275  83.5%     -    0s
H    0     0                       9.2472427   16.84275  82.1%     -    0s
H    0     0                       9.2505760   16.84275  82.1%     -    0s
H    0     0                       9.3031050   16.84275  81.0%     -    0s
H    0     0                       9.4731197   16.84275  77.8%     -    0s
H    0     0                       9.5967239   16.84275  75.5%     -    0s
H    0     0                       9.6848100   16.84275  73.9%     -    0s
H    0     0                       9.9364585   16.84275  69.5%     -    0s
H    0     0                      10.3151472   16.84275  63.3%     -    0s
     0     0   14.23395    0  623   10.31515   14.23395  38.0%     -    1s
H    0     0                      10.8790063   14.23281  30.8%     -    1s
H    0     0                      10.9974884   14.23281  29.4%     -    1s
     0     0   13.88609    0  508   10.99749   13.88609  26.3%     -    1s
     0     0   13.86126    0  565   10.99749   13.86126  26.0%     -    1s
     0     0   13.80942    0  514   10.99749   13.80942  25.6%     -    1s
     0     0   13.79419    0  549   10.99749   13.79419  25.4%     -    1s
     0     0   13.79343    0  549   10.99749   13.79343  25.4%     -    1s
     0     0   12.84561    0  419   10.99749   12.84561  16.8%     -    1s
H    0     0                      11.2154544   12.84415  14.5%     -    1s
H    0     0                      11.2471211   12.84415  14.2%     -    1s
H    0     0                      11.5684735   12.84415  11.0%     -    1s
H    0     0                      11.5704735   12.84415  11.0%     -    1s
     0     0   12.74197    0  368   11.57047   12.74197  10.1%     -    1s
     0     0   12.19665    0  246   11.57047   12.19665  5.41%     -    1s
H    0     0                      11.8389634   12.19574  3.01%     -    1s
H    0     0                      11.8546044   12.19574  2.88%     -    1s
H    0     0                      11.9696622   12.19574  1.89%     -    1s
     0     0   12.18262    0  169   11.96966   12.18262  1.78%     -    1s
     0     0   12.11703    0  251   11.96966   12.11703  1.23%     -    1s
     0     0   12.11652    0  251   11.96966   12.11652  1.23%     -    1s
     0     0   12.10336    0  248   11.96966   12.10336  1.12%     -    1s
     0     0   12.06532    0  159   11.96966   12.06532  0.80%     -    1s
     0     0   12.06532    0  268   11.96966   12.06532  0.80%     -    1s
     0     0   12.06532    0  298   11.96966   12.06532  0.80%     -    1s
     0     0   12.06532    0  258   11.96966   12.06532  0.80%     -    1s
     0     0   12.06532    0  134   11.96966   12.06532  0.80%     -    1s
     0     0   12.06532    0  181   11.96966   12.06532  0.80%     -    1s
     0     0   12.06532    0  173   11.96966   12.06532  0.80%     -    1s
     0     0   12.06532    0  146   11.96966   12.06532  0.80%     -    1s
     0     0   12.05486    0   37   11.96966   12.05486  0.71%     -    1s
     0     0   12.05486    0   37   11.96966   12.05486  0.71%     -    1s
     0     0   12.05486    0  255   11.96966   12.05486  0.71%     -    2s
     0     0   12.05486    0  221   11.96966   12.05486  0.71%     -    2s
     0     0   12.05486    0  152   11.96966   12.05486  0.71%     -    2s
     0     0   12.05486    0   36   11.96966   12.05486  0.71%     -    2s
*    0     0               0      12.0548626   12.05486  0.00%     -    2s

Cutting planes:
  Learned: 2
  Gomory: 9
  Cover: 16
  Implied bound: 48
  Clique: 13
  MIR: 16
  Flow cover: 4
  GUB cover: 3
  RLT: 18
  Relax-and-lift: 13
  PSD: 1

Explored 1 nodes (10717 simplex iterations) in 2.13 seconds (3.09 work units)
Thread count was 1 (of 11 available processors)

Solution count 10: 12.0549 12.0549 11.9697 ... 11.5685

Optimal solution found (tolerance 1.00e-04)
Best objective 1.205486262816e+01, best bound 1.205486262816e+01, gap 0.0000%

Gurobi 12.0.0 (mac64[arm]) logging started Tue Feb 17 09:35:03 2026

Set parameter LogFile to value "/Users/lennardhansmann/Desktop/TNLAP/Instances/sol/H30P180A1(A).log"
Set parameter Threads to value 1
Gurobi Optimizer version 12.0.0 build v12.0.0rc1 (mac64[arm] - Darwin 25.2.0 25C56)

CPU model: Apple M3 Pro
Thread count: 11 physical cores, 11 logical processors, using up to 1 threads

Non-default parameters:
TimeLimit  3600
Threads  1

Optimize a model with 27390 rows, 24397 columns and 228391 nonzeros
Model fingerprint: 0xcb700cb7
Variable types: 6214 continuous, 18183 integer (18183 binary)
Coefficient statistics:
  Matrix range     [1e-02, 2e+04]
  Objective range  [1e+00, 1e+00]
  Bounds range     [1e+00, 2e+04]
  RHS range        [5e-01, 2e+04]
Presolve removed 15391 rows and 14271 columns
Presolve time: 1.32s
Presolved: 11999 rows, 10126 columns, 93198 nonzeros
Variable types: 792 continuous, 9334 integer (7844 binary)
Found heuristic solution: objective 1.0567207
Found heuristic solution: objective 2.0381170

Root relaxation: objective 2.226531e+01, 9976 iterations, 0.48 seconds (1.01 work units)

    Nodes    |    Current Node    |     Objective Bounds      |     Work
 Expl Unexpl |  Obj  Depth IntInf | Incumbent    BestBd   Gap | It/Node Time

     0     0   22.26531    0  888    2.03812   22.26531   992%     -    1s
     0     0   22.10138    0  967    2.03812   22.10138   984%     -    2s
H    0     0                       2.3718923   22.10138   832%     -    2s
H    0     0                      11.5051405   22.10138  92.1%     -    2s
H    0     0                      11.5134738   22.10138  92.0%     -    2s
H    0     0                      11.5234738   22.10138  91.8%     -    2s
H    0     0                      11.6730515   22.10138  89.3%     -    2s
H    0     0                      11.7352613   22.10138  88.3%     -    2s
H    0     0                      11.8043010   22.10138  87.2%     -    2s
H    0     0                      11.8195163   22.10138  87.0%     -    2s
H    0     0                      11.8320163   22.10138  86.8%     -    2s
H    0     0                      11.8520501   22.10138  86.5%     -    2s
H    0     0                      12.2113622   22.10138  81.0%     -    2s
H    0     0                      12.2410016   22.10138  80.6%     -    2s
     0     0   18.96234    0 1091   12.24100   18.96234  54.9%     -    2s
H    0     0                      12.3970024   18.96234  53.0%     -    2s
H    0     0                      12.4908681   18.96234  51.8%     -    2s
H    0     0                      12.6439861   18.96234  50.0%     -    2s
H    0     0                      12.7608245   18.96234  48.6%     -    2s
H    0     0                      12.7808245   18.96234  48.4%     -    2s
     0     0   18.56190    0 1024   12.78082   18.56190  45.2%     -    3s
     0     0   18.52990    0 1050   12.78082   18.52990  45.0%     -    3s
     0     0   18.52411    0 1009   12.78082   18.52411  44.9%     -    3s
     0     0   18.52215    0 1078   12.78082   18.52215  44.9%     -    3s
     0     0   18.52194    0  954   12.78082   18.52194  44.9%     -    3s
     0     0   17.42463    0  981   12.78082   17.42463  36.3%     -    3s
     0     0   17.39468    0 1009   12.78082   17.39468  36.1%     -    3s
H    0     0                      12.7891578   17.39468  36.0%     -    3s
H    0     0                      12.9434714   17.39468  34.4%     -    3s
H    0     0                      13.0098331   17.39468  33.7%     -    4s
H    0     0                      13.0348332   17.39468  33.4%     -    4s
     0     0   17.20346    0 1158   13.03483   17.20346  32.0%     -    4s
     0     0   17.17576    0 1129   13.03483   17.17576  31.8%     -    4s
     0     0   17.16964    0  939   13.03483   17.16964  31.7%     -    4s
     0     0   16.15892    0 1047   13.03483   16.15892  24.0%     -    5s
H    0     0                      13.3511128   16.15892  21.0%     -    5s
H    0     0                      13.3636128   16.15892  20.9%     -    5s
H    0     0                      13.3761128   16.15892  20.8%     -    5s
H    0     0                      13.3786128   16.15892  20.8%     -    5s
     0     0   15.99173    0  851   13.37861   15.99173  19.5%     -    5s
     0     0   15.94314    0  866   13.37861   15.94314  19.2%     -    5s
     0     0   15.94106    0  832   13.37861   15.94106  19.2%     -    5s
     0     0   15.94028    0  907   13.37861   15.94028  19.1%     -    5s
     0     0   15.05829    0 1002   13.37861   15.05829  12.6%     -    6s
     0     0   14.97094    0  888   13.37861   14.97094  11.9%     -    6s
     0     0   14.96912    0  840   13.37861   14.96912  11.9%     -    6s
     0     0   14.66730    0  968   13.37861   14.66730  9.63%     -    6s
H    0     0                      13.3897704   14.66730  9.54%     -    7s
H    0     0                      13.5271027   14.66730  8.43%     -    7s
H    0     0                      13.5371027   14.66730  8.35%     -    7s
     0     0   14.65269    0  918   13.53710   14.65269  8.24%     -    7s
     0     0   14.63988    0  844   13.53710   14.63988  8.15%     -    7s
     0     0   14.63448    0  972   13.53710   14.63448  8.11%     -    7s
     0     0   14.63421    0  937   13.53710   14.63421  8.10%     -    7s
     0     0   14.49605    0  582   13.53710   14.49605  7.08%     -    7s
     0     0   14.49409    0  603   13.53710   14.49409  7.07%     -    7s
     0     0   14.47600    0  556   13.53710   14.47600  6.94%     -    7s
     0     0   14.47486    0  453   13.53710   14.47486  6.93%     -    7s
     0     0   14.40049    0  590   13.53710   14.40049  6.38%     -    7s
H    0     0                      13.8377174   14.40049  4.07%     -    8s
H    0     0                      13.8488751   14.40049  3.98%     -    8s
     0     0   14.37919    0  609   13.84888   14.37919  3.83%     -    8s
     0     0   14.37919    0  609   13.84888   14.37919  3.83%     -    8s
     0     0   14.32357    0  681   13.84888   14.32357  3.43%     -    8s
     0     0   14.32297    0  820   13.84888   14.32297  3.42%     -    8s
     0     0   14.28336    0  713   13.84888   14.28336  3.14%     -    8s
     0     0   14.28076    0  712   13.84888   14.28076  3.12%     -    8s
     0     0   14.18193    0  495   13.84888   14.18193  2.40%     -    8s
     0     0   14.18193    0  495   13.84888   14.18193  2.40%     -    8s
H    0     0                      13.9422455   14.18193  1.72%     -    8s
     0     0   14.17954    0  635   13.94225   14.17954  1.70%     -    8s
     0     0   14.17954    0  635   13.94225   14.17954  1.70%     -    8s
     0     0   14.13187    0  241   13.94225   14.13187  1.36%     -    8s
     0     0   14.12765    0  431   13.94225   14.12765  1.33%     -    8s
     0     0   14.12456    0  420   13.94225   14.12456  1.31%     -    9s
     0     0   14.12455    0  436   13.94225   14.12455  1.31%     -    9s
     0     0   14.12196    0  387   13.94225   14.12196  1.29%     -    9s
     0     0   14.12189    0  365   13.94225   14.12189  1.29%     -    9s
     0     0   14.10115    0  511   13.94225   14.10115  1.14%     -    9s
     0     0   14.10064    0  110   13.94225   14.10064  1.14%     -    9s
H    0     0                      14.0173248   14.10031  0.59%     -    9s
H    0     0                      14.0203248   14.10031  0.57%     -    9s
H    0     0                      14.0339915   14.10031  0.47%     -    9s
     0     0   14.10031    0  109   14.03399   14.10031  0.47%     -    9s
     0     0   14.09546    0   91   14.03399   14.09546  0.44%     -    9s
     0     0   14.07904    0  635   14.03399   14.07904  0.32%     -    9s
     0     0   14.07904    0  469   14.03399   14.07904  0.32%     -   10s
     0     0   14.07904    0  418   14.03399   14.07904  0.32%     -   10s
     0     0   14.07904    0  290   14.03399   14.07904  0.32%     -   10s
     0     0   14.07904    0  382   14.03399   14.07904  0.32%     -   10s
     0     0   14.07904    0  205   14.03399   14.07904  0.32%     -   10s
     0     0   14.07904    0  492   14.03399   14.07904  0.32%     -   10s
     0     0   14.07904    0  346   14.03399   14.07904  0.32%     -   10s
     0     0   14.06607    0  434   14.03399   14.06607  0.23%     -   10s
     0     0   14.06437    0  238   14.03399   14.06437  0.22%     -   10s
     0     0   14.05930    0  224   14.03399   14.05930  0.18%     -   10s
H    0     0                      14.0423248   14.05930  0.12%     -   10s
     0     0   14.05930    0  278   14.04232   14.05930  0.12%     -   10s
     0     0   14.05930    0  279   14.04232   14.05930  0.12%     -   10s
     0     0   14.05930    0  215   14.04232   14.05930  0.12%     -   10s
     0     0   14.05930    0  147   14.04232   14.05930  0.12%     -   10s
     0     0   14.05930    0  174   14.04232   14.05930  0.12%     -   10s
     0     0   14.05926    0  185   14.04232   14.05926  0.12%     -   10s
     0     0   14.05926    0  171   14.04232   14.05926  0.12%     -   10s
     0     0   14.05926    0   37   14.04232   14.05926  0.12%     -   10s
     0     0   14.05926    0    8   14.04232   14.05926  0.12%     -   10s
     0     0   14.04914    0    5   14.04232   14.04914  0.05%     -   10s
H    0     0                      14.0458686   14.04791  0.01%     -   10s

Cutting planes:
  Learned: 1
  Gomory: 4
  Cover: 14
  Implied bound: 23
  Clique: 11
  MIR: 6
  StrongCG: 1
  Flow cover: 6
  GUB cover: 1
  Zero half: 1
  RLT: 3
  Relax-and-lift: 3
  PSD: 2

Explored 1 nodes (44262 simplex iterations) in 10.86 seconds (20.62 work units)
Thread count was 1 (of 11 available processors)

Solution count 10: 14.0459 14.0423 14.034 ... 13.5371

Optimal solution found (tolerance 1.00e-04)
Best objective 1.404586859198e+01, best bound 1.404663178696e+01, gap 0.0054%
